p cnf 18 18
-1 5 14 -15 -16 -17 -18 0 
-2 6 15 -14 -16 -17 -18 0 
-2 6 16 -14 -15 -17 -18 0 
-2 6 17 -14 -15 -16 -18 0 
-2 6 18 -14 -15 -16 -17 0 
-3 -4 13 15 -14 -16 -17 -18 0 
-5 1 15 -14 -16 -17 -18 0 
-6 2 18 -14 -15 -16 -17 0 
-6 2 16 -14 -15 -17 -18 0 
-7 -4 13 -8 -9 -10 -11 15 -14 -16 -17 -18 0 
-4 13 -12 15 -14 -16 -17 -18 0 
-1 5 -4 13 14 -15 -16 -17 -18 0 
-13 4 17 -14 -15 -16 -18 0 
-4 13 14 -15 -16 -17 -18 0 
-4 13 -11 15 -14 -16 -17 -18 0 
-2 6 17 -14 -15 -16 -18 0 
-2 6 18 -14 -15 -16 -17 0 
-2 6 16 -14 -15 -17 -18 0 
